(set-logic QF_NRA)
(set-info :source |Benchmarks generated from hycomp (https://es-static.fbk.eu/tools/hycomp/). BMC instances of non-linear hybrid automata taken from: Alessandro Cimatti, Sergio Mover, Stefano Tonetta, A quantifier-free SMT encoding of non-linear hybrid automata, FMCAD 2012 and Alessandro Cimatti, Sergio Mover, Stefano Tonetta, Quantier-free encoding of invariants for Hybrid Systems, Formal Methods in System Design. This instance solves a BMC problem of depth 3 and uses the quantifier free encoding with equivalences and lemmas encoding. Contacts: Sergio Mover (mover@fbk.eu), Stefano Tonetta (tonettas@fbk.eu), Alessandro Cimatti (cimatti@fbk.eu).|)
(set-info :smt-lib-version 2.0)
(set-info :category "industrial")
(set-info :status unsat)
;; MathSAT API call trace
;; generated on Mon Mar 19 10:45:48 2012
(declare-fun b.counter.1__AT1 () Bool)
(declare-fun b.counter.2__AT1 () Bool)
(declare-fun b.event_is_timed__AT0 () Bool)
(declare-fun b.time__AT3 () Real)
(declare-fun b.counter.3__AT1 () Bool)
(declare-fun b.bool_atom__AT0 () Bool)
(declare-fun b.bool_atom__AT2 () Bool)
(declare-fun b.y__AT2 () Real)
(declare-fun b.delta__AT3 () Real)
(declare-fun b.x__AT0 () Real)
(declare-fun b.time__AT2 () Real)
(declare-fun b.EVENT.0__AT3 () Bool)
(declare-fun b.counter.0__AT2 () Bool)
(declare-fun b.delta__AT2 () Real)
(declare-fun b.delta__AT1 () Real)
(declare-fun b.counter.1__AT2 () Bool)
(declare-fun b.speed_y__AT1 () Real)
(declare-fun b.x__AT2 () Real)
(declare-fun b.EVENT.0__AT2 () Bool)
(declare-fun b.time__AT1 () Real)
(declare-fun b.EVENT.0__AT1 () Bool)
(declare-fun b.counter.2__AT2 () Bool)
(declare-fun b.EVENT.1__AT2 () Bool)
(declare-fun b.time__AT0 () Real)
(declare-fun b.EVENT.1__AT1 () Bool)
(declare-fun b.counter.3__AT2 () Bool)
(declare-fun b.delta__AT0 () Real)
(declare-fun b.EVENT.1__AT0 () Bool)
(declare-fun b.speed_y__AT2 () Real)
(declare-fun b.event_is_timed__AT3 () Bool)
(declare-fun b.y__AT0 () Real)
(declare-fun b.counter.0__AT0 () Bool)
(declare-fun b.y__AT3 () Real)
(declare-fun b.EVENT.0__AT0 () Bool)
(declare-fun b.counter.3__AT0 () Bool)
(declare-fun b.counter.1__AT0 () Bool)
(declare-fun b.event_is_timed__AT1 () Bool)
(declare-fun b.bool_atom__AT1 () Bool)
(declare-fun b.counter.0__AT3 () Bool)
(declare-fun b.counter.1__AT3 () Bool)
(declare-fun b.x__AT3 () Real)
(declare-fun b.counter.2__AT3 () Bool)
(declare-fun b.EVENT.1__AT3 () Bool)
(declare-fun b.counter.3__AT3 () Bool)
(declare-fun b.g__AT0 () Real)
(declare-fun b.bool_atom__AT3 () Bool)
(declare-fun b.speed_y__AT0 () Real)
(declare-fun b.x__AT1 () Real)
(declare-fun b.y__AT1 () Real)
(declare-fun b.speed_y__AT3 () Real)
(declare-fun b.counter.2__AT0 () Bool)
(declare-fun b.counter.0__AT1 () Bool)
(declare-fun b.event_is_timed__AT2 () Bool)
(assert (let ((.def_76 (* (- 1.0) b.g__AT0)))
(let ((.def_79 (* (/ 1 2) .def_76)))
(let ((.def_91 (* 2.0 .def_79)))
(let ((.def_761 (* .def_91 b.delta__AT3)))
(let ((.def_762 (+ b.speed_y__AT3 .def_761)))
(let ((.def_779 (<= .def_762 0.0 )))
(let ((.def_780 (not .def_779)))
(let ((.def_777 (<= b.speed_y__AT3 0.0 )))
(let ((.def_800 (or .def_777 .def_780)))
(let ((.def_765 (<= 0.0 b.speed_y__AT3)))
(let ((.def_766 (not .def_765)))
(let ((.def_763 (<= 0.0 .def_762)))
(let ((.def_799 (or .def_763 .def_766)))
(let ((.def_801 (and .def_799 .def_800)))
(let ((.def_131 (<= 0.0 b.g__AT0)))
(let ((.def_802 (or .def_131 .def_801)))
(let ((.def_764 (not .def_763)))
(let ((.def_796 (or .def_764 .def_765)))
(let ((.def_778 (not .def_777)))
(let ((.def_795 (or .def_778 .def_779)))
(let ((.def_797 (and .def_795 .def_796)))
(let ((.def_126 (<= b.g__AT0 0.0 )))
(let ((.def_798 (or .def_126 .def_797)))
(let ((.def_803 (and .def_798 .def_802)))
(let ((.def_792 (and .def_777 .def_779)))
(let ((.def_791 (and .def_763 .def_765)))
(let ((.def_793 (or .def_791 .def_792)))
(let ((.def_752 (* b.speed_y__AT3 b.delta__AT3)))
(let ((.def_750 (* b.delta__AT3 b.delta__AT3)))
(let ((.def_751 (* .def_79 .def_750)))
(let ((.def_753 (+ .def_751 .def_752)))
(let ((.def_730 (* (- 1.0) b.x__AT3)))
(let ((.def_731 (* b.x__AT3 .def_730)))
(let ((.def_754 (* (- 1.0) .def_731)))
(let ((.def_757 (+ .def_754 .def_753)))
(let ((.def_758 (+ b.y__AT3 .def_757)))
(let ((.def_771 (<= .def_758 0.0 )))
(let ((.def_785 (not .def_771)))
(let ((.def_769 (<= b.y__AT3 .def_731)))
(let ((.def_786 (or .def_769 .def_785)))
(let ((.def_732 (<= .def_731 b.y__AT3)))
(let ((.def_783 (not .def_732)))
(let ((.def_759 (<= 0.0 .def_758)))
(let ((.def_784 (or .def_759 .def_783)))
(let ((.def_787 (and .def_784 .def_786)))
(let ((.def_781 (or .def_778 .def_780)))
(let ((.def_782 (not .def_781)))
(let ((.def_788 (or .def_782 .def_787)))
(let ((.def_773 (not .def_759)))
(let ((.def_774 (or .def_732 .def_773)))
(let ((.def_770 (not .def_769)))
(let ((.def_772 (or .def_770 .def_771)))
(let ((.def_775 (and .def_772 .def_774)))
(let ((.def_767 (or .def_764 .def_766)))
(let ((.def_768 (not .def_767)))
(let ((.def_776 (or .def_768 .def_775)))
(let ((.def_789 (and .def_776 .def_788)))
(let ((.def_760 (and .def_732 .def_759)))
(let ((.def_790 (and .def_760 .def_789)))
(let ((.def_794 (and .def_790 .def_793)))
(let ((.def_804 (and .def_794 .def_803)))
(let ((.def_68 (<= b.g__AT0 10.0 )))
(let ((.def_67 (<= 8.0 b.g__AT0)))
(let ((.def_69 (and .def_67 .def_68)))
(let ((.def_805 (and .def_69 .def_804)))
(let ((.def_430 (not b.counter.0__AT2)))
(let ((.def_742 (or b.counter.1__AT2 .def_430)))
(let ((.def_743 (or b.counter.2__AT2 .def_742)))
(let ((.def_420 (not b.counter.1__AT2)))
(let ((.def_737 (and .def_420 .def_430)))
(let ((.def_425 (not b.counter.2__AT2)))
(let ((.def_741 (or .def_425 .def_737)))
(let ((.def_744 (and .def_741 .def_743)))
(let ((.def_745 (or b.counter.3__AT2 .def_744)))
(let ((.def_738 (or b.counter.2__AT2 .def_737)))
(let ((.def_736 (or .def_420 .def_425)))
(let ((.def_739 (and .def_736 .def_738)))
(let ((.def_439 (not b.counter.3__AT2)))
(let ((.def_740 (or .def_439 .def_739)))
(let ((.def_746 (and .def_740 .def_745)))
(let ((.def_733 (and .def_69 .def_732)))
(let ((.def_727 (not b.EVENT.0__AT3)))
(let ((.def_725 (not b.EVENT.1__AT3)))
(let ((.def_728 (or .def_725 .def_727)))
(let ((.def_9 (not b.counter.0__AT3)))
(let ((.def_6 (not b.counter.1__AT3)))
(let ((.def_718 (or .def_6 .def_9)))
(let ((.def_722 (or b.counter.3__AT3 .def_718)))
(let ((.def_719 (or b.counter.2__AT3 .def_718)))
(let ((.def_4 (not b.counter.2__AT3)))
(let ((.def_717 (or .def_4 .def_9)))
(let ((.def_720 (and .def_717 .def_719)))
(let ((.def_14 (not b.counter.3__AT3)))
(let ((.def_721 (or .def_14 .def_720)))
(let ((.def_723 (and .def_721 .def_722)))
(let ((.def_729 (and .def_723 .def_728)))
(let ((.def_734 (and .def_729 .def_733)))
(let ((.def_712 (<= 0.0 b.delta__AT2)))
(let ((.def_510 (not b.EVENT.0__AT2)))
(let ((.def_508 (not b.EVENT.1__AT2)))
(let ((.def_590 (and .def_508 .def_510)))
(let ((.def_592 (not .def_590)))
(let ((.def_713 (or .def_592 .def_712)))
(let ((.def_714 (or b.EVENT.1__AT2 .def_713)))
(let ((.def_627 (= b.bool_atom__AT2 b.bool_atom__AT3)))
(let ((.def_623 (= b.counter.0__AT3 b.counter.0__AT2)))
(let ((.def_621 (= b.counter.1__AT3 b.counter.1__AT2)))
(let ((.def_619 (= b.counter.2__AT3 b.counter.2__AT2)))
(let ((.def_618 (= b.counter.3__AT3 b.counter.3__AT2)))
(let ((.def_620 (and .def_618 .def_619)))
(let ((.def_622 (and .def_620 .def_621)))
(let ((.def_624 (and .def_622 .def_623)))
(let ((.def_708 (and .def_624 .def_627)))
(let ((.def_709 (or .def_592 .def_708)))
(let ((.def_710 (or b.EVENT.1__AT2 .def_709)))
(let ((.def_697 (* .def_76 b.delta__AT2)))
(let ((.def_698 (* (- 1.0) b.speed_y__AT3)))
(let ((.def_701 (+ .def_698 .def_697)))
(let ((.def_702 (+ b.speed_y__AT2 .def_701)))
(let ((.def_703 (= .def_702 0.0 )))
(let ((.def_688 (* (- 1.0) b.y__AT3)))
(let ((.def_535 (* b.speed_y__AT2 b.delta__AT2)))
(let ((.def_692 (+ .def_535 .def_688)))
(let ((.def_533 (* b.delta__AT2 b.delta__AT2)))
(let ((.def_534 (* .def_79 .def_533)))
(let ((.def_693 (+ .def_534 .def_692)))
(let ((.def_694 (+ b.y__AT2 .def_693)))
(let ((.def_695 (= .def_694 0.0 )))
(let ((.def_610 (= b.x__AT2 b.x__AT3)))
(let ((.def_696 (and .def_610 .def_695)))
(let ((.def_704 (and .def_696 .def_703)))
(let ((.def_705 (or .def_592 .def_704)))
(let ((.def_613 (= b.y__AT2 b.y__AT3)))
(let ((.def_683 (and .def_610 .def_613)))
(let ((.def_616 (= b.speed_y__AT2 b.speed_y__AT3)))
(let ((.def_684 (and .def_616 .def_683)))
(let ((.def_680 (= b.delta__AT2 0.0 )))
(let ((.def_681 (and .def_590 .def_680)))
(let ((.def_682 (not .def_681)))
(let ((.def_685 (or .def_682 .def_684)))
(let ((.def_686 (or b.EVENT.1__AT2 .def_685)))
(let ((.def_673 (and .def_616 .def_624)))
(let ((.def_674 (or b.bool_atom__AT2 .def_673)))
(let ((.def_649 (or .def_9 b.counter.0__AT2)))
(let ((.def_648 (or b.counter.0__AT3 .def_430)))
(let ((.def_650 (and .def_648 .def_649)))
(let ((.def_651 (and .def_6 .def_650)))
(let ((.def_652 (or b.counter.1__AT2 .def_651)))
(let ((.def_647 (or b.counter.1__AT3 .def_420)))
(let ((.def_653 (and .def_647 .def_652)))
(let ((.def_664 (and .def_4 .def_653)))
(let ((.def_665 (or b.counter.2__AT2 .def_664)))
(let ((.def_659 (and .def_6 .def_430)))
(let ((.def_660 (or b.counter.1__AT2 .def_659)))
(let ((.def_661 (and .def_647 .def_660)))
(let ((.def_662 (and b.counter.2__AT3 .def_661)))
(let ((.def_663 (or .def_425 .def_662)))
(let ((.def_666 (and .def_663 .def_665)))
(let ((.def_667 (and b.counter.3__AT3 .def_666)))
(let ((.def_668 (or b.counter.3__AT2 .def_667)))
(let ((.def_654 (and b.counter.2__AT3 .def_653)))
(let ((.def_655 (or b.counter.2__AT2 .def_654)))
(let ((.def_643 (or b.counter.1__AT3 b.counter.1__AT2)))
(let ((.def_641 (and .def_6 b.counter.0__AT3)))
(let ((.def_642 (or .def_420 .def_641)))
(let ((.def_644 (and .def_642 .def_643)))
(let ((.def_645 (and .def_4 .def_644)))
(let ((.def_646 (or .def_425 .def_645)))
(let ((.def_656 (and .def_646 .def_655)))
(let ((.def_657 (and .def_14 .def_656)))
(let ((.def_658 (or .def_439 .def_657)))
(let ((.def_669 (and .def_658 .def_668)))
(let ((.def_638 (* b.speed_y__AT3 b.speed_y__AT3)))
(let ((.def_417 (* b.speed_y__AT2 b.speed_y__AT2)))
(let ((.def_639 (= .def_417 .def_638)))
(let ((.def_636 (+ b.speed_y__AT2 b.speed_y__AT3)))
(let ((.def_637 (= .def_636 0.0 )))
(let ((.def_640 (and .def_637 .def_639)))
(let ((.def_670 (and .def_640 .def_669)))
(let ((.def_635 (not b.bool_atom__AT2)))
(let ((.def_671 (or .def_635 .def_670)))
(let ((.def_513 (* (- 1.0) b.x__AT2)))
(let ((.def_514 (* b.x__AT2 .def_513)))
(let ((.def_632 (= b.y__AT2 .def_514)))
(let ((.def_548 (<= 0.0 b.speed_y__AT2)))
(let ((.def_549 (not .def_548)))
(let ((.def_633 (and .def_549 .def_632)))
(let ((.def_634 (= b.bool_atom__AT2 .def_633)))
(let ((.def_672 (and .def_634 .def_671)))
(let ((.def_675 (and .def_672 .def_674)))
(let ((.def_676 (and .def_610 .def_675)))
(let ((.def_677 (and .def_613 .def_676)))
(let ((.def_678 (or .def_590 .def_677)))
(let ((.def_679 (or b.EVENT.1__AT2 .def_678)))
(let ((.def_687 (and .def_679 .def_686)))
(let ((.def_706 (and .def_687 .def_705)))
(let ((.def_597 (= b.time__AT2 b.time__AT3)))
(let ((.def_611 (and .def_597 .def_610)))
(let ((.def_614 (and .def_611 .def_613)))
(let ((.def_617 (and .def_614 .def_616)))
(let ((.def_625 (and .def_617 .def_624)))
(let ((.def_628 (and .def_625 .def_627)))
(let ((.def_629 (or .def_508 .def_628)))
(let ((.def_600 (* (- 1.0) b.time__AT3)))
(let ((.def_603 (+ b.delta__AT2 .def_600)))
(let ((.def_604 (+ b.time__AT2 .def_603)))
(let ((.def_605 (= .def_604 0.0 )))
(let ((.def_606 (or .def_592 .def_605)))
(let ((.def_607 (or b.EVENT.1__AT2 .def_606)))
(let ((.def_598 (or .def_590 .def_597)))
(let ((.def_599 (or b.EVENT.1__AT2 .def_598)))
(let ((.def_608 (and .def_599 .def_607)))
(let ((.def_630 (and .def_608 .def_629)))
(let ((.def_594 (= .def_592 b.event_is_timed__AT3)))
(let ((.def_591 (= b.event_is_timed__AT2 .def_590)))
(let ((.def_595 (and .def_591 .def_594)))
(let ((.def_631 (and .def_595 .def_630)))
(let ((.def_707 (and .def_631 .def_706)))
(let ((.def_711 (and .def_707 .def_710)))
(let ((.def_715 (and .def_711 .def_714)))
(let ((.def_716 (and .def_508 .def_715)))
(let ((.def_735 (and .def_716 .def_734)))
(let ((.def_747 (and .def_735 .def_746)))
(let ((.def_544 (* .def_91 b.delta__AT2)))
(let ((.def_545 (+ b.speed_y__AT2 .def_544)))
(let ((.def_562 (<= .def_545 0.0 )))
(let ((.def_563 (not .def_562)))
(let ((.def_560 (<= b.speed_y__AT2 0.0 )))
(let ((.def_583 (or .def_560 .def_563)))
(let ((.def_546 (<= 0.0 .def_545)))
(let ((.def_582 (or .def_546 .def_549)))
(let ((.def_584 (and .def_582 .def_583)))
(let ((.def_585 (or .def_131 .def_584)))
(let ((.def_547 (not .def_546)))
(let ((.def_579 (or .def_547 .def_548)))
(let ((.def_561 (not .def_560)))
(let ((.def_578 (or .def_561 .def_562)))
(let ((.def_580 (and .def_578 .def_579)))
(let ((.def_581 (or .def_126 .def_580)))
(let ((.def_586 (and .def_581 .def_585)))
(let ((.def_575 (and .def_560 .def_562)))
(let ((.def_574 (and .def_546 .def_548)))
(let ((.def_576 (or .def_574 .def_575)))
(let ((.def_536 (+ .def_534 .def_535)))
(let ((.def_537 (* (- 1.0) .def_514)))
(let ((.def_540 (+ .def_537 .def_536)))
(let ((.def_541 (+ b.y__AT2 .def_540)))
(let ((.def_554 (<= .def_541 0.0 )))
(let ((.def_568 (not .def_554)))
(let ((.def_552 (<= b.y__AT2 .def_514)))
(let ((.def_569 (or .def_552 .def_568)))
(let ((.def_515 (<= .def_514 b.y__AT2)))
(let ((.def_566 (not .def_515)))
(let ((.def_542 (<= 0.0 .def_541)))
(let ((.def_567 (or .def_542 .def_566)))
(let ((.def_570 (and .def_567 .def_569)))
(let ((.def_564 (or .def_561 .def_563)))
(let ((.def_565 (not .def_564)))
(let ((.def_571 (or .def_565 .def_570)))
(let ((.def_556 (not .def_542)))
(let ((.def_557 (or .def_515 .def_556)))
(let ((.def_553 (not .def_552)))
(let ((.def_555 (or .def_553 .def_554)))
(let ((.def_558 (and .def_555 .def_557)))
(let ((.def_550 (or .def_547 .def_549)))
(let ((.def_551 (not .def_550)))
(let ((.def_559 (or .def_551 .def_558)))
(let ((.def_572 (and .def_559 .def_571)))
(let ((.def_543 (and .def_515 .def_542)))
(let ((.def_573 (and .def_543 .def_572)))
(let ((.def_577 (and .def_573 .def_576)))
(let ((.def_587 (and .def_577 .def_586)))
(let ((.def_588 (and .def_69 .def_587)))
(let ((.def_207 (not b.counter.0__AT1)))
(let ((.def_525 (or b.counter.1__AT1 .def_207)))
(let ((.def_526 (or b.counter.2__AT1 .def_525)))
(let ((.def_197 (not b.counter.1__AT1)))
(let ((.def_520 (and .def_197 .def_207)))
(let ((.def_202 (not b.counter.2__AT1)))
(let ((.def_524 (or .def_202 .def_520)))
(let ((.def_527 (and .def_524 .def_526)))
(let ((.def_528 (or b.counter.3__AT1 .def_527)))
(let ((.def_521 (or b.counter.2__AT1 .def_520)))
(let ((.def_519 (or .def_197 .def_202)))
(let ((.def_522 (and .def_519 .def_521)))
(let ((.def_216 (not b.counter.3__AT1)))
(let ((.def_523 (or .def_216 .def_522)))
(let ((.def_529 (and .def_523 .def_528)))
(let ((.def_516 (and .def_69 .def_515)))
(let ((.def_511 (or .def_508 .def_510)))
(let ((.def_501 (or .def_420 .def_430)))
(let ((.def_505 (or b.counter.3__AT2 .def_501)))
(let ((.def_502 (or b.counter.2__AT2 .def_501)))
(let ((.def_500 (or .def_425 .def_430)))
(let ((.def_503 (and .def_500 .def_502)))
(let ((.def_504 (or .def_439 .def_503)))
(let ((.def_506 (and .def_504 .def_505)))
(let ((.def_512 (and .def_506 .def_511)))
(let ((.def_517 (and .def_512 .def_516)))
(let ((.def_495 (<= 0.0 b.delta__AT1)))
(let ((.def_286 (not b.EVENT.0__AT1)))
(let ((.def_284 (not b.EVENT.1__AT1)))
(let ((.def_365 (and .def_284 .def_286)))
(let ((.def_367 (not .def_365)))
(let ((.def_496 (or .def_367 .def_495)))
(let ((.def_497 (or b.EVENT.1__AT1 .def_496)))
(let ((.def_406 (= b.bool_atom__AT1 b.bool_atom__AT2)))
(let ((.def_402 (= b.counter.0__AT1 b.counter.0__AT2)))
(let ((.def_399 (= b.counter.1__AT1 b.counter.1__AT2)))
(let ((.def_396 (= b.counter.2__AT1 b.counter.2__AT2)))
(let ((.def_394 (= b.counter.3__AT1 b.counter.3__AT2)))
(let ((.def_397 (and .def_394 .def_396)))
(let ((.def_400 (and .def_397 .def_399)))
(let ((.def_403 (and .def_400 .def_402)))
(let ((.def_491 (and .def_403 .def_406)))
(let ((.def_492 (or .def_367 .def_491)))
(let ((.def_493 (or b.EVENT.1__AT1 .def_492)))
(let ((.def_480 (* .def_76 b.delta__AT1)))
(let ((.def_481 (* (- 1.0) b.speed_y__AT2)))
(let ((.def_484 (+ .def_481 .def_480)))
(let ((.def_485 (+ b.speed_y__AT1 .def_484)))
(let ((.def_486 (= .def_485 0.0 )))
(let ((.def_471 (* (- 1.0) b.y__AT2)))
(let ((.def_310 (* b.speed_y__AT1 b.delta__AT1)))
(let ((.def_475 (+ .def_310 .def_471)))
(let ((.def_308 (* b.delta__AT1 b.delta__AT1)))
(let ((.def_309 (* .def_79 .def_308)))
(let ((.def_476 (+ .def_309 .def_475)))
(let ((.def_477 (+ b.y__AT1 .def_476)))
(let ((.def_478 (= .def_477 0.0 )))
(let ((.def_385 (= b.x__AT1 b.x__AT2)))
(let ((.def_479 (and .def_385 .def_478)))
(let ((.def_487 (and .def_479 .def_486)))
(let ((.def_488 (or .def_367 .def_487)))
(let ((.def_388 (= b.y__AT1 b.y__AT2)))
(let ((.def_466 (and .def_385 .def_388)))
(let ((.def_391 (= b.speed_y__AT1 b.speed_y__AT2)))
(let ((.def_467 (and .def_391 .def_466)))
(let ((.def_463 (= b.delta__AT1 0.0 )))
(let ((.def_464 (and .def_365 .def_463)))
(let ((.def_465 (not .def_464)))
(let ((.def_468 (or .def_465 .def_467)))
(let ((.def_469 (or b.EVENT.1__AT1 .def_468)))
(let ((.def_456 (and .def_391 .def_403)))
(let ((.def_457 (or b.bool_atom__AT1 .def_456)))
(let ((.def_431 (or b.counter.0__AT1 .def_430)))
(let ((.def_429 (or .def_207 b.counter.0__AT2)))
(let ((.def_432 (and .def_429 .def_431)))
(let ((.def_433 (and .def_420 .def_432)))
(let ((.def_434 (or b.counter.1__AT1 .def_433)))
(let ((.def_428 (or .def_197 b.counter.1__AT2)))
(let ((.def_435 (and .def_428 .def_434)))
(let ((.def_447 (and .def_425 .def_435)))
(let ((.def_448 (or b.counter.2__AT1 .def_447)))
(let ((.def_442 (and .def_207 .def_420)))
(let ((.def_443 (or b.counter.1__AT1 .def_442)))
(let ((.def_444 (and .def_428 .def_443)))
(let ((.def_445 (and b.counter.2__AT2 .def_444)))
(let ((.def_446 (or .def_202 .def_445)))
(let ((.def_449 (and .def_446 .def_448)))
(let ((.def_450 (and b.counter.3__AT2 .def_449)))
(let ((.def_451 (or b.counter.3__AT1 .def_450)))
(let ((.def_436 (and b.counter.2__AT2 .def_435)))
(let ((.def_437 (or b.counter.2__AT1 .def_436)))
(let ((.def_423 (or b.counter.1__AT1 b.counter.1__AT2)))
(let ((.def_421 (and b.counter.0__AT2 .def_420)))
(let ((.def_422 (or .def_197 .def_421)))
(let ((.def_424 (and .def_422 .def_423)))
(let ((.def_426 (and .def_424 .def_425)))
(let ((.def_427 (or .def_202 .def_426)))
(let ((.def_438 (and .def_427 .def_437)))
(let ((.def_440 (and .def_438 .def_439)))
(let ((.def_441 (or .def_216 .def_440)))
(let ((.def_452 (and .def_441 .def_451)))
(let ((.def_193 (* b.speed_y__AT1 b.speed_y__AT1)))
(let ((.def_418 (= .def_193 .def_417)))
(let ((.def_415 (+ b.speed_y__AT1 b.speed_y__AT2)))
(let ((.def_416 (= .def_415 0.0 )))
(let ((.def_419 (and .def_416 .def_418)))
(let ((.def_453 (and .def_419 .def_452)))
(let ((.def_414 (not b.bool_atom__AT1)))
(let ((.def_454 (or .def_414 .def_453)))
(let ((.def_289 (* (- 1.0) b.x__AT1)))
(let ((.def_290 (* b.x__AT1 .def_289)))
(let ((.def_411 (= b.y__AT1 .def_290)))
(let ((.def_323 (<= 0.0 b.speed_y__AT1)))
(let ((.def_324 (not .def_323)))
(let ((.def_412 (and .def_324 .def_411)))
(let ((.def_413 (= b.bool_atom__AT1 .def_412)))
(let ((.def_455 (and .def_413 .def_454)))
(let ((.def_458 (and .def_455 .def_457)))
(let ((.def_459 (and .def_385 .def_458)))
(let ((.def_460 (and .def_388 .def_459)))
(let ((.def_461 (or .def_365 .def_460)))
(let ((.def_462 (or b.EVENT.1__AT1 .def_461)))
(let ((.def_470 (and .def_462 .def_469)))
(let ((.def_489 (and .def_470 .def_488)))
(let ((.def_372 (= b.time__AT1 b.time__AT2)))
(let ((.def_386 (and .def_372 .def_385)))
(let ((.def_389 (and .def_386 .def_388)))
(let ((.def_392 (and .def_389 .def_391)))
(let ((.def_404 (and .def_392 .def_403)))
(let ((.def_407 (and .def_404 .def_406)))
(let ((.def_408 (or .def_284 .def_407)))
(let ((.def_375 (* (- 1.0) b.time__AT2)))
(let ((.def_378 (+ b.delta__AT1 .def_375)))
(let ((.def_379 (+ b.time__AT1 .def_378)))
(let ((.def_380 (= .def_379 0.0 )))
(let ((.def_381 (or .def_367 .def_380)))
(let ((.def_382 (or b.EVENT.1__AT1 .def_381)))
(let ((.def_373 (or .def_365 .def_372)))
(let ((.def_374 (or b.EVENT.1__AT1 .def_373)))
(let ((.def_383 (and .def_374 .def_382)))
(let ((.def_409 (and .def_383 .def_408)))
(let ((.def_369 (= .def_367 b.event_is_timed__AT2)))
(let ((.def_366 (= b.event_is_timed__AT1 .def_365)))
(let ((.def_370 (and .def_366 .def_369)))
(let ((.def_410 (and .def_370 .def_409)))
(let ((.def_490 (and .def_410 .def_489)))
(let ((.def_494 (and .def_490 .def_493)))
(let ((.def_498 (and .def_494 .def_497)))
(let ((.def_499 (and .def_284 .def_498)))
(let ((.def_518 (and .def_499 .def_517)))
(let ((.def_530 (and .def_518 .def_529)))
(let ((.def_319 (* .def_91 b.delta__AT1)))
(let ((.def_320 (+ b.speed_y__AT1 .def_319)))
(let ((.def_337 (<= .def_320 0.0 )))
(let ((.def_338 (not .def_337)))
(let ((.def_335 (<= b.speed_y__AT1 0.0 )))
(let ((.def_358 (or .def_335 .def_338)))
(let ((.def_321 (<= 0.0 .def_320)))
(let ((.def_357 (or .def_321 .def_324)))
(let ((.def_359 (and .def_357 .def_358)))
(let ((.def_360 (or .def_131 .def_359)))
(let ((.def_322 (not .def_321)))
(let ((.def_354 (or .def_322 .def_323)))
(let ((.def_336 (not .def_335)))
(let ((.def_353 (or .def_336 .def_337)))
(let ((.def_355 (and .def_353 .def_354)))
(let ((.def_356 (or .def_126 .def_355)))
(let ((.def_361 (and .def_356 .def_360)))
(let ((.def_350 (and .def_335 .def_337)))
(let ((.def_349 (and .def_321 .def_323)))
(let ((.def_351 (or .def_349 .def_350)))
(let ((.def_311 (+ .def_309 .def_310)))
(let ((.def_312 (* (- 1.0) .def_290)))
(let ((.def_315 (+ .def_312 .def_311)))
(let ((.def_316 (+ b.y__AT1 .def_315)))
(let ((.def_329 (<= .def_316 0.0 )))
(let ((.def_343 (not .def_329)))
(let ((.def_327 (<= b.y__AT1 .def_290)))
(let ((.def_344 (or .def_327 .def_343)))
(let ((.def_291 (<= .def_290 b.y__AT1)))
(let ((.def_341 (not .def_291)))
(let ((.def_317 (<= 0.0 .def_316)))
(let ((.def_342 (or .def_317 .def_341)))
(let ((.def_345 (and .def_342 .def_344)))
(let ((.def_339 (or .def_336 .def_338)))
(let ((.def_340 (not .def_339)))
(let ((.def_346 (or .def_340 .def_345)))
(let ((.def_331 (not .def_317)))
(let ((.def_332 (or .def_291 .def_331)))
(let ((.def_328 (not .def_327)))
(let ((.def_330 (or .def_328 .def_329)))
(let ((.def_333 (and .def_330 .def_332)))
(let ((.def_325 (or .def_322 .def_324)))
(let ((.def_326 (not .def_325)))
(let ((.def_334 (or .def_326 .def_333)))
(let ((.def_347 (and .def_334 .def_346)))
(let ((.def_318 (and .def_291 .def_317)))
(let ((.def_348 (and .def_318 .def_347)))
(let ((.def_352 (and .def_348 .def_351)))
(let ((.def_362 (and .def_352 .def_361)))
(let ((.def_363 (and .def_69 .def_362)))
(let ((.def_38 (not b.counter.0__AT0)))
(let ((.def_300 (or b.counter.1__AT0 .def_38)))
(let ((.def_301 (or b.counter.2__AT0 .def_300)))
(let ((.def_41 (not b.counter.2__AT0)))
(let ((.def_36 (not b.counter.1__AT0)))
(let ((.def_39 (and .def_36 .def_38)))
(let ((.def_299 (or .def_39 .def_41)))
(let ((.def_302 (and .def_299 .def_301)))
(let ((.def_303 (or b.counter.3__AT0 .def_302)))
(let ((.def_296 (or .def_39 b.counter.2__AT0)))
(let ((.def_295 (or .def_36 .def_41)))
(let ((.def_297 (and .def_295 .def_296)))
(let ((.def_44 (not b.counter.3__AT0)))
(let ((.def_298 (or .def_44 .def_297)))
(let ((.def_304 (and .def_298 .def_303)))
(let ((.def_292 (and .def_69 .def_291)))
(let ((.def_287 (or .def_284 .def_286)))
(let ((.def_277 (or .def_197 .def_207)))
(let ((.def_281 (or b.counter.3__AT1 .def_277)))
(let ((.def_278 (or b.counter.2__AT1 .def_277)))
(let ((.def_276 (or .def_202 .def_207)))
(let ((.def_279 (and .def_276 .def_278)))
(let ((.def_280 (or .def_216 .def_279)))
(let ((.def_282 (and .def_280 .def_281)))
(let ((.def_288 (and .def_282 .def_287)))
(let ((.def_293 (and .def_288 .def_292)))
(let ((.def_271 (<= 0.0 b.delta__AT0)))
(let ((.def_57 (not b.EVENT.0__AT0)))
(let ((.def_55 (not b.EVENT.1__AT0)))
(let ((.def_140 (and .def_55 .def_57)))
(let ((.def_142 (not .def_140)))
(let ((.def_272 (or .def_142 .def_271)))
(let ((.def_273 (or b.EVENT.1__AT0 .def_272)))
(let ((.def_182 (= b.bool_atom__AT0 b.bool_atom__AT1)))
(let ((.def_177 (= b.counter.0__AT0 b.counter.0__AT1)))
(let ((.def_174 (= b.counter.1__AT0 b.counter.1__AT1)))
(let ((.def_171 (= b.counter.2__AT0 b.counter.2__AT1)))
(let ((.def_169 (= b.counter.3__AT0 b.counter.3__AT1)))
(let ((.def_172 (and .def_169 .def_171)))
(let ((.def_175 (and .def_172 .def_174)))
(let ((.def_178 (and .def_175 .def_177)))
(let ((.def_267 (and .def_178 .def_182)))
(let ((.def_268 (or .def_142 .def_267)))
(let ((.def_269 (or b.EVENT.1__AT0 .def_268)))
(let ((.def_256 (* b.delta__AT0 .def_76)))
(let ((.def_257 (* (- 1.0) b.speed_y__AT1)))
(let ((.def_260 (+ .def_257 .def_256)))
(let ((.def_261 (+ b.speed_y__AT0 .def_260)))
(let ((.def_262 (= .def_261 0.0 )))
(let ((.def_248 (* (- 1.0) b.y__AT1)))
(let ((.def_82 (* b.delta__AT0 b.speed_y__AT0)))
(let ((.def_251 (+ .def_82 .def_248)))
(let ((.def_75 (* b.delta__AT0 b.delta__AT0)))
(let ((.def_80 (* .def_75 .def_79)))
(let ((.def_252 (+ .def_80 .def_251)))
(let ((.def_253 (+ b.y__AT0 .def_252)))
(let ((.def_254 (= .def_253 0.0 )))
(let ((.def_160 (= b.x__AT0 b.x__AT1)))
(let ((.def_255 (and .def_160 .def_254)))
(let ((.def_263 (and .def_255 .def_262)))
(let ((.def_264 (or .def_142 .def_263)))
(let ((.def_163 (= b.y__AT0 b.y__AT1)))
(let ((.def_243 (and .def_160 .def_163)))
(let ((.def_166 (= b.speed_y__AT0 b.speed_y__AT1)))
(let ((.def_244 (and .def_166 .def_243)))
(let ((.def_240 (= b.delta__AT0 0.0 )))
(let ((.def_241 (and .def_140 .def_240)))
(let ((.def_242 (not .def_241)))
(let ((.def_245 (or .def_242 .def_244)))
(let ((.def_246 (or b.EVENT.1__AT0 .def_245)))
(let ((.def_233 (and .def_166 .def_178)))
(let ((.def_234 (or b.bool_atom__AT0 .def_233)))
(let ((.def_208 (or b.counter.0__AT0 .def_207)))
(let ((.def_206 (or .def_38 b.counter.0__AT1)))
(let ((.def_209 (and .def_206 .def_208)))
(let ((.def_210 (and .def_197 .def_209)))
(let ((.def_211 (or b.counter.1__AT0 .def_210)))
(let ((.def_205 (or .def_36 b.counter.1__AT1)))
(let ((.def_212 (and .def_205 .def_211)))
(let ((.def_224 (and .def_202 .def_212)))
(let ((.def_225 (or b.counter.2__AT0 .def_224)))
(let ((.def_219 (and .def_38 .def_197)))
(let ((.def_220 (or b.counter.1__AT0 .def_219)))
(let ((.def_221 (and .def_205 .def_220)))
(let ((.def_222 (and b.counter.2__AT1 .def_221)))
(let ((.def_223 (or .def_41 .def_222)))
(let ((.def_226 (and .def_223 .def_225)))
(let ((.def_227 (and b.counter.3__AT1 .def_226)))
(let ((.def_228 (or b.counter.3__AT0 .def_227)))
(let ((.def_213 (and b.counter.2__AT1 .def_212)))
(let ((.def_214 (or b.counter.2__AT0 .def_213)))
(let ((.def_200 (or b.counter.1__AT0 b.counter.1__AT1)))
(let ((.def_198 (and b.counter.0__AT1 .def_197)))
(let ((.def_199 (or .def_36 .def_198)))
(let ((.def_201 (and .def_199 .def_200)))
(let ((.def_203 (and .def_201 .def_202)))
(let ((.def_204 (or .def_41 .def_203)))
(let ((.def_215 (and .def_204 .def_214)))
(let ((.def_217 (and .def_215 .def_216)))
(let ((.def_218 (or .def_44 .def_217)))
(let ((.def_229 (and .def_218 .def_228)))
(let ((.def_194 (* b.speed_y__AT0 b.speed_y__AT0)))
(let ((.def_195 (= .def_193 .def_194)))
(let ((.def_191 (+ b.speed_y__AT0 b.speed_y__AT1)))
(let ((.def_192 (= .def_191 0.0 )))
(let ((.def_196 (and .def_192 .def_195)))
(let ((.def_230 (and .def_196 .def_229)))
(let ((.def_190 (not b.bool_atom__AT0)))
(let ((.def_231 (or .def_190 .def_230)))
(let ((.def_62 (* (- 1.0) b.x__AT0)))
(let ((.def_63 (* b.x__AT0 .def_62)))
(let ((.def_187 (= b.y__AT0 .def_63)))
(let ((.def_96 (<= 0.0 b.speed_y__AT0)))
(let ((.def_97 (not .def_96)))
(let ((.def_188 (and .def_97 .def_187)))
(let ((.def_189 (= b.bool_atom__AT0 .def_188)))
(let ((.def_232 (and .def_189 .def_231)))
(let ((.def_235 (and .def_232 .def_234)))
(let ((.def_236 (and .def_160 .def_235)))
(let ((.def_237 (and .def_163 .def_236)))
(let ((.def_238 (or .def_140 .def_237)))
(let ((.def_239 (or b.EVENT.1__AT0 .def_238)))
(let ((.def_247 (and .def_239 .def_246)))
(let ((.def_265 (and .def_247 .def_264)))
(let ((.def_147 (= b.time__AT0 b.time__AT1)))
(let ((.def_161 (and .def_147 .def_160)))
(let ((.def_164 (and .def_161 .def_163)))
(let ((.def_167 (and .def_164 .def_166)))
(let ((.def_179 (and .def_167 .def_178)))
(let ((.def_183 (and .def_179 .def_182)))
(let ((.def_184 (or .def_55 .def_183)))
(let ((.def_150 (* (- 1.0) b.time__AT1)))
(let ((.def_153 (+ b.delta__AT0 .def_150)))
(let ((.def_154 (+ b.time__AT0 .def_153)))
(let ((.def_155 (= .def_154 0.0 )))
(let ((.def_156 (or .def_142 .def_155)))
(let ((.def_157 (or b.EVENT.1__AT0 .def_156)))
(let ((.def_148 (or .def_140 .def_147)))
(let ((.def_149 (or b.EVENT.1__AT0 .def_148)))
(let ((.def_158 (and .def_149 .def_157)))
(let ((.def_185 (and .def_158 .def_184)))
(let ((.def_144 (= .def_142 b.event_is_timed__AT1)))
(let ((.def_141 (= b.event_is_timed__AT0 .def_140)))
(let ((.def_145 (and .def_141 .def_144)))
(let ((.def_186 (and .def_145 .def_185)))
(let ((.def_266 (and .def_186 .def_265)))
(let ((.def_270 (and .def_266 .def_269)))
(let ((.def_274 (and .def_270 .def_273)))
(let ((.def_275 (and .def_55 .def_274)))
(let ((.def_294 (and .def_275 .def_293)))
(let ((.def_305 (and .def_294 .def_304)))
(let ((.def_92 (* b.delta__AT0 .def_91)))
(let ((.def_93 (+ b.speed_y__AT0 .def_92)))
(let ((.def_110 (<= .def_93 0.0 )))
(let ((.def_111 (not .def_110)))
(let ((.def_108 (<= b.speed_y__AT0 0.0 )))
(let ((.def_133 (or .def_108 .def_111)))
(let ((.def_94 (<= 0.0 .def_93)))
(let ((.def_132 (or .def_94 .def_97)))
(let ((.def_134 (and .def_132 .def_133)))
(let ((.def_135 (or .def_131 .def_134)))
(let ((.def_95 (not .def_94)))
(let ((.def_128 (or .def_95 .def_96)))
(let ((.def_109 (not .def_108)))
(let ((.def_127 (or .def_109 .def_110)))
(let ((.def_129 (and .def_127 .def_128)))
(let ((.def_130 (or .def_126 .def_129)))
(let ((.def_136 (and .def_130 .def_135)))
(let ((.def_123 (and .def_108 .def_110)))
(let ((.def_122 (and .def_94 .def_96)))
(let ((.def_124 (or .def_122 .def_123)))
(let ((.def_83 (+ .def_80 .def_82)))
(let ((.def_84 (* (- 1.0) .def_63)))
(let ((.def_87 (+ .def_84 .def_83)))
(let ((.def_88 (+ b.y__AT0 .def_87)))
(let ((.def_102 (<= .def_88 0.0 )))
(let ((.def_116 (not .def_102)))
(let ((.def_100 (<= b.y__AT0 .def_63)))
(let ((.def_117 (or .def_100 .def_116)))
(let ((.def_64 (<= .def_63 b.y__AT0)))
(let ((.def_114 (not .def_64)))
(let ((.def_89 (<= 0.0 .def_88)))
(let ((.def_115 (or .def_89 .def_114)))
(let ((.def_118 (and .def_115 .def_117)))
(let ((.def_112 (or .def_109 .def_111)))
(let ((.def_113 (not .def_112)))
(let ((.def_119 (or .def_113 .def_118)))
(let ((.def_104 (not .def_89)))
(let ((.def_105 (or .def_64 .def_104)))
(let ((.def_101 (not .def_100)))
(let ((.def_103 (or .def_101 .def_102)))
(let ((.def_106 (and .def_103 .def_105)))
(let ((.def_98 (or .def_95 .def_97)))
(let ((.def_99 (not .def_98)))
(let ((.def_107 (or .def_99 .def_106)))
(let ((.def_120 (and .def_107 .def_119)))
(let ((.def_90 (and .def_64 .def_89)))
(let ((.def_121 (and .def_90 .def_120)))
(let ((.def_125 (and .def_121 .def_124)))
(let ((.def_137 (and .def_125 .def_136)))
(let ((.def_138 (and .def_69 .def_137)))
(let ((.def_70 (and .def_64 .def_69)))
(let ((.def_58 (or .def_55 .def_57)))
(let ((.def_48 (or .def_36 .def_38)))
(let ((.def_52 (or b.counter.3__AT0 .def_48)))
(let ((.def_49 (or b.counter.2__AT0 .def_48)))
(let ((.def_47 (or .def_38 .def_41)))
(let ((.def_50 (and .def_47 .def_49)))
(let ((.def_51 (or .def_44 .def_50)))
(let ((.def_53 (and .def_51 .def_52)))
(let ((.def_59 (and .def_53 .def_58)))
(let ((.def_71 (and .def_59 .def_70)))
(let ((.def_42 (and .def_39 .def_41)))
(let ((.def_45 (and .def_42 .def_44)))
(let ((.def_33 (= b.y__AT0 10.0 )))
(let ((.def_29 (= b.x__AT0 0.0 )))
(let ((.def_25 (= b.time__AT0 0.0 )))
(let ((.def_27 (and .def_25 b.event_is_timed__AT0)))
(let ((.def_30 (and .def_27 .def_29)))
(let ((.def_34 (and .def_30 .def_33)))
(let ((.def_46 (and .def_34 .def_45)))
(let ((.def_72 (and .def_46 .def_71)))
(let ((.def_17 (or b.counter.1__AT3 .def_9)))
(let ((.def_18 (or b.counter.2__AT3 .def_17)))
(let ((.def_10 (and .def_6 .def_9)))
(let ((.def_16 (or .def_4 .def_10)))
(let ((.def_19 (and .def_16 .def_18)))
(let ((.def_20 (or b.counter.3__AT3 .def_19)))
(let ((.def_11 (or b.counter.2__AT3 .def_10)))
(let ((.def_7 (or .def_4 .def_6)))
(let ((.def_12 (and .def_7 .def_11)))
(let ((.def_15 (or .def_12 .def_14)))
(let ((.def_21 (and .def_15 .def_20)))
(let ((.def_22 (not .def_21)))
(let ((.def_73 (and .def_22 .def_72)))
(let ((.def_139 (and .def_73 .def_138)))
(let ((.def_306 (and .def_139 .def_305)))
(let ((.def_364 (and .def_306 .def_363)))
(let ((.def_531 (and .def_364 .def_530)))
(let ((.def_589 (and .def_531 .def_588)))
(let ((.def_748 (and .def_589 .def_747)))
(let ((.def_806 (and .def_748 .def_805)))
.def_806)))))))))))))))))))))))))))))))))))))))))))))))))))))))))))))))))))))))))))))))))))))))))))))))))))))))))))))))))))))))))))))))))))))))))))))))))))))))))))))))))))))))))))))))))))))))))))))))))))))))))))))))))))))))))))))))))))))))))))))))))))))))))))))))))))))))))))))))))))))))))))))))))))))))))))))))))))))))))))))))))))))))))))))))))))))))))))))))))))))))))))))))))))))))))))))))))))))))))))))))))))))))))))))))))))))))))))))))))))))))))))))))))))))))))))))))))))))))))))))))))))))))))))))))))))))))))))))))))))))))))))))))))))))))))))))))))))))))))))))))))))))))))))))))))))))))))))))))))))))))))))))))))))))))))))))))))))))))))))))))))))))))))))))))))))))))))))))))))))))))))))))))))))))))))))))))))))))))))))))
(check-sat)
(exit)
